NAME : compression
TYPE : TSP
DIMENSION : 50
EDGE_WEIGHT_TYPE : EUC_2D
NODE_COORD_SECTION
1 142622 426898
2 151482 417459
3 577702 311285
4 87304 849826
5 349735 110038
6 765186 235694
7 949269 547889
8 934038 703632
9 330133 142821
10 784923 354093
11 736135 250053
12 114356 444346
13 253394 252810
14 93628 889214
15 104131 444861
16 231316 962017
17 176117 455284
18 130445 480383
19 130618 443943
20 943352 890183
21 459621 833873
22 151268 450883
23 160074 452442
24 391562 48051
25 127512 446693
26 217805 970168
27 331611 259860
28 833074 846660
29 663612 770889
30 64602 891729
31 434634 817500
32 512294 981002
33 888386 191210
34 846044 852460
35 511640 514706
36 881316 343702
37 293068 879897
38 357126 815595
39 351154 76647
40 99750 456232
41 164663 453255
42 414309 38410
43 74544 437294
44 510535 291768
45 163702 453085
46 63341 435310
47 493450 948743
48 139505 448799
49 169878 475781
50 724519 827661
EOF
